p cnf 70 60
-52 1 11 21 31 41 0 
-51 -1 0
-51 -11 0
-51 -21 0
-51 -31 0
-51 -41 0
-54 2 12 22 32 42 0 
-53 -2 0
-53 -12 0
-53 -22 0
-53 -32 0
-53 -42 0
-56 3 13 23 33 43 0 
-55 -3 0
-55 -13 0
-55 -23 0
-55 -33 0
-55 -43 0
-58 4 14 24 34 44 0 
-57 -4 0
-57 -14 0
-57 -24 0
-57 -34 0
-57 -44 0
-60 5 15 25 35 45 0 
-59 -5 0
-59 -15 0
-59 -25 0
-59 -35 0
-59 -45 0
-62 6 16 26 36 46 0 
-61 -6 0
-61 -16 0
-61 -26 0
-61 -36 0
-61 -46 0
-64 7 17 27 37 47 0 
-63 -7 0
-63 -17 0
-63 -27 0
-63 -37 0
-63 -47 0
-66 8 18 28 38 48 0 
-65 -8 0
-65 -18 0
-65 -28 0
-65 -38 0
-65 -48 0
-68 9 19 29 39 49 0 
-67 -9 0
-67 -19 0
-67 -29 0
-67 -39 0
-67 -49 0
-70 10 20 30 40 50 0 
-69 -10 0
-69 -20 0
-69 -30 0
-69 -40 0
-69 -50 0
